n=14;
m=91;
E=[|6,12
|13,9
|10,12
|6,1
|1,2
|13,8
|14,13
|7,10
|3,5
|6,3
|5,12
|13,11
|13,14
|3,5
|8,10
|2,8
|1,7
|14,10
|10,8
|14,7
|10,2
|1,13
|2,9
|9,14
|4,11
|10,9
|8,4
|7,6
|2,10
|4,5
|9,2
|12,13
|11,5
|1,14
|4,10
|3,1
|5,10
|3,8
|8,11
|10,9
|7,10
|4,8
|8,14
|5,12
|6,10
|4,7
|9,1
|3,11
|8,10
|8,4
|13,11
|1,9
|8,2
|2,14
|4,1
|9,14
|14,7
|5,6
|7,3
|13,12
|6,12
|8,14
|9,12
|13,12
|5,8
|8,14
|5,10
|1,13
|3,1
|14,11
|8,13
|2,8
|10,9
|11,13
|5,1
|13,2
|13,10
|9,3
|4,2
|3,13
|13,8
|3,11
|7,1
|10,3
|7,3
|8,1
|7,6
|2,11
|5,7
|1,7
|6,14
|];

